32      4       
14      20      13      19      
0       0       0       0       0       16      2       4       6       7       8       13      14      15      24      25      26      27      28      29      30      31      
4       5       5       0       0       1       3       
5       4       0       2       0       3       5       11      16      
5       0       0       3       3       4       11      16      18      23      
10      0       7       2       0       2       9       18      
1       8       0       1       0       3       17      21      22      
7       1       0       1       0       2       12      20      
1       0       2       0       7       2       16      17      
4       1       0       5       0       1       10      
9       3       0       0       7       1       17      
1       2       0       0       1       1       19      
5       0       4       0       1       1       16      
6       1       15      0       0       1       18      
5       0       7       6       0       1       16      
10      0       0       2       1       1       16      
3       0       0       1       1       1       32      
1       3       3       0       0       1       32      
6       5       0       1       0       1       32      
9       1       0       0       8       1       32      
6       0       8       1       0       1       32      
4       0       1       11      0       1       32      
1       0       6       1       0       1       32      
10      0       1       1       0       1       32      
7       1       1       0       0       1       32      
1       0       7       0       1       1       32      
6       0       0       11      11      1       32      
7       5       0       0       6       1       32      
8       0       4       0       5       1       32      
1       7       0       0       1       1       32      
3       6       0       0       4       1       32      
8       0       4       0       14      1       32      
0       0       0       0       0       0       
